NAME: random problem
TYPE: MTSP
COMMENT: MTSP problem for MRS UAV summer school
DIMENSION: 20
NUMBER_OF_ROBOTS: 2
START_TARGET_INDEXES: 1, 2
NEIGHBORHOOD_RADIUS: 2
EDGE_WEIGHT_TYPE: EUC_2D
NODE_COORD_SECTION
1 15.0 -21.0
2 -5.0 -25.0
3 -0.5 5.7
4 11.2 11.1
5 35.3 -15.7
6 -2.8 -30.2
7 30.9 -8.4
8 -23.8 -0.6
9 26.0 -17.2
10 2.0 -22.3
11 -0.5 -9.3
12 18.7 -8.1
13 -6.7 13.6
14 -0.9 -29.4
15 29.6 8.1
16 13.3 -10.9
17 33.9 7.7
18 24.8 -22.4
19 14.8 -1.5
20 9.2 15.9
EOF
